Minimize
    8.5 x1 + 6 x2 + 8.9 x3 + 5.7 x4 + 8.8 x5

Subject To
    R1: x1 + x2 + x3 + x4 + x5 = 1
    R2: 0.3 x1 + 0.1 x2 + 0.5 x3 + 0.1 x4 + 0.5 x5 = 0.3
    R3: 0.6 x1 + 0.2 x2 + 0.2 x3 + 0.1 x4 + 0.1 x5 = 0.2
    R4: 0.1 x1 + 0.7 x2 + 0.3 x3 + 0.8 x4 + 0.4 x5 = 0.5
    
Bounds
    x1 >= 0
    x2 >= 0
    x3 >= 0
    x4 >= 0
    x5 >= 0

End
